AES/1_5_4/ssaes_r1-20_c5_rw1_e4_f0_k1-20_aes_1base_box_aes_mc_bidirectional/ExperimentMinisat_r3_k8cnf_2011-10-29-214711/Result
WARNING: for repeatability, setting FPU to use double precision
============================[ Problem Statistics ]=============================
|                                                                             |
|  Number of variables:           324                                         |
|  Number of clauses:            1286                                         |
|  Parse time:                   0.00 s                                       |
|  Eliminated clauses:           0.00 Mb                                      |
|  Simplification time:          0.00 s                                       |
|                                                                             |
=============================[ Search Statistics ]==============================
| Conflicts  |          ORIGINAL         |          LEARNT          | Progress |
|            |    Vars  Clauses Literals |    Limit  Clauses Lit/Cl |          |
================================================================================
|        100 |     192      926     3008 |      339      100     11 | 16.051 % |
|        250 |     192      926     3008 |      373      250     13 | 16.050 % |
|        475 |     192      926     3008 |      410      253     11 | 16.050 % |
===============================================================================
restarts              : 5
conflicts             : 505            (56124 /sec)
decisions             : 616            (0.00 % random) (68460 /sec)
propagations          : 33681          (3743165 /sec)
conflict literals     : 6524           (25.11 % deleted)
Memory used           : 8.00 MB
CPU time              : 0.008998 s

SATISFIABLE
